r = [
0,130,36,120,144,30,55,93,124,24,36,97,72,52,43,124,152,139,130,33,121,124,51,101,33,115,0
];
p = [
0,11,5,25,18,15,16,29,1,24,14,3,14,19,16,14,24,9,10,7,13,26,24,15,12,1,0
];
e = [
0,14,3,14,2,6,11,18,12,18,18,17,13,14,6,10,13,18,16,2,11,2,5,5,1,6,0
];
d = [
0,175,58,145,479,321,88,413,387,88,65,127,249,267,102,413,235,390,392,120,217,349,200,368,207,178,495
];
d_bar = [
0,185,63,168,495,335,102,439,388,110,78,130,262,284,116,426,257,398,401,126,229,372,222,382,218,179,495
];
w = [
0,1.4,0.6,0.608695652,0.125,0.428571429,0.785714286,0.692307692,12,0.818181818,1.384615385,5.666666667,1,0.823529412,0.428571429,0.769230769,0.590909091,2.25,1.777777778,0.333333333,0.916666667,0.086956522,0.227272727,0.357142857,0.090909091,6,0
];
